CapLotSizing_PM/src/Instancias/TCLSLT/12i6p2m/NBB04.OUT
 CG ITER, OVMR, OVMRUB =           1   15052.1005859   15052.1005859
 CG ITER, OVMR, OVMRUB =           2   15052.1015625   15052.1005859
 CG ITER, OVMR, OVMRUB =           3   15052.1005859   15052.1005859
 CG ITER, OVMR, OVMRUB =           4   15044.1210938   15052.1005859
 CG ITER, OVMR, OVMRUB =           5   14382.1416016   15052.1005859
 CG ITER, OVMR, OVMRUB =           6   14320.0712891   15052.1005859
 CG ITER, OVMR, OVMRUB =           7   14275.5000000   15052.1005859
 CG ITER, OVMR, OVMRUB =           8   14251.0263672   15052.1005859
 CG ITER, OVMR, OVMRUB =           9   14215.5966797   15052.1005859
 CG ITER, OVMR, OVMRUB =          10   14188.2011719   15052.1005859
 CG ITER, OVMR, OVMRUB =          11   14170.5947266   15052.1005859
 CG ITER, OVMR, OVMRUB =          12   14154.2695312   15052.1005859
 CG ITER, OVMR, OVMRUB =          13   14133.2148438   15046.2636719
 CG ITER, OVMR, OVMRUB =          14   14128.9404297   15046.2636719
 CG ITER, OVMR, OVMRUB =          15   14123.8603516   15046.2636719
 CG ITER, OVMR, OVMRUB =          16   14122.7666016   15037.0000000
 CG ITER, OVMR, OVMRUB =          17   14120.6972656   14817.5585938
 CG ITER, OVMR, OVMRUB =          18   14120.6591797   14191.0996094
 CG ITER, OVMR, OVMRUB =          19   14119.8183594   14191.0996094
 CG ITER, OVMR, OVMRUB =          20   14117.1699219   14191.0996094
 CG ITER, OVMR, OVMRUB =          21   14117.1367188   14191.0996094
 CG ITER, OVMR, OVMRUB =          22   14117.1298828   14191.0996094
 CG ITER, OVMR, OVMRUB =          23   14116.8222656   14191.0996094
 CG ITER, OVMR, OVMRUB =          24   14116.7753906   14191.0996094
 CG ITER, OVMR, OVMRUB =          25   14116.0869141   14191.0996094
 CG ITER, OVMR, OVMRUB =          26   14116.0927734   14191.0996094
 CG ITER, OVMR, OVMRUB =          27   14116.0722656   14191.0996094
 CG ITER, OVMR, OVMRUB =          28   14116.0722656   14191.0996094
OVLB =   14116.0722656 OVLUB =   14191.0996094 TIME =       5.2100000
